\ Model Weights
\ LP format - for model browsing. Use MPS format to capture full model detail.
Maximize
  7.544549739566651 q1 + 9.360782008158527 q3 + 15.73127230074681 q5
   + 3.453 q6 + 10.10397834463067 q9 - 3.00760019406022 q11
   + 7.54145292537746 q12 + 6.585977640749991 q14 + 1.973996243039934 q17
   + 3.573976164655182 q19 + 12.8507243656687 q20 + 5.500175122072697 q23
   + 7.557346633454557 q25
Subject To
 R00: q0 = 0
 R01: q29 = 0
 R10: q1 - q2 = 0
 R11: q3 - q4 = 0
 R12: q5 - q8 = 0
 R13: q6 - q7 = 0
 R14: q9 - q10 = 0
 R15: q11 - q13 = 0
 R16: q12 - q15 = 0
 R17: q14 - q16 = 0
 R18: q17 - q18 = 0
 R19: q19 - q21 = 0
 R110: q20 - q22 = 0
 R111: q23 - q24 = 0
 R112: q25 - q26 = 0
 R113: q27 - q28 = 0
 R20: q1 >= 0
 R21: q2 >= 0
 R22: q3 >= 0
 R23: q4 >= 0
 R24: q5 >= 0
 R25: q6 >= 0
 R26: q7 >= 0
 R27: q8 >= 0
 R28: q9 >= 0
 R29: q10 >= 0
 R210: q11 >= 0
 R211: q12 >= 0
 R212: q13 >= 0
 R213: q14 >= 0
 R214: q15 >= 0
 R215: q16 >= 0
 R216: q17 >= 0
 R217: q18 >= 0
 R218: q19 >= 0
 R219: q20 >= 0
 R220: q21 >= 0
 R221: q22 >= 0
 R222: q23 >= 0
 R223: q24 >= 0
 R224: q25 >= 0
 R225: q26 >= 0
 R226: q27 >= 0
 R227: q28 >= 0
 R30: q1 <= 9
 R31: q3 <= 15
 R32: q5 <= 3
 R33: q6 <= 8
 R34: q9 <= 5
 R35: q11 <= 8
 R36: q12 <= 8
 R37: q14 <= 11
 R38: q17 <= 5
 R39: q19 <= 10
 R310: q20 <= 5
 R311: q23 <= 6
 R312: q25 <= 10
 R313: q27 <= 0
 R40: Q0 + q1 - Q1 = 0
 R41: Q1 - q2 - Q2 = 0
 R42: Q2 + q3 - Q3 = 0
 R43: Q3 - q4 - Q4 = 0
 R44: Q4 + q5 - Q5 = 0
 R45: Q5 + q6 - Q6 = 0
 R46: Q6 - q7 - Q7 = 0
 R47: Q7 - q8 - Q8 = 0
 R48: Q8 + q9 - Q9 = 0
 R49: Q9 - q10 - Q10 = 0
 R410: Q10 + q11 - Q11 = 0
 R411: Q11 + q12 - Q12 = 0
 R412: Q12 - q13 - Q13 = 0
 R413: Q13 + q14 - Q14 = 0
 R414: Q14 - q15 - Q15 = 0
 R415: Q15 - q16 - Q16 = 0
 R416: Q16 + q17 - Q17 = 0
 R417: Q17 - q18 - Q18 = 0
 R418: Q18 + q19 - Q19 = 0
 R419: Q19 + q20 - Q20 = 0
 R420: Q20 - q21 - Q21 = 0
 R421: Q21 - q22 - Q22 = 0
 R422: Q22 + q23 - Q23 = 0
 R423: Q23 - q24 - Q24 = 0
 R424: Q24 + q25 - Q25 = 0
 R425: Q25 - q26 - Q26 = 0
 R426: Q26 + q27 - Q27 = 0
 R427: Q27 - q28 - Q28 = 0
 R428: Q28 - q29 - Q29 = 0
 R5: Q29 = 0
 R60: Q0 <= 15
 R61: Q1 <= 15
 R62: Q2 <= 15
 R63: Q3 <= 15
 R64: Q4 <= 15
 R65: Q5 <= 15
 R66: Q6 <= 15
 R67: Q7 <= 15
 R68: Q8 <= 15
 R69: Q9 <= 15
 R610: Q10 <= 15
 R611: Q11 <= 15
 R612: Q12 <= 15
 R613: Q13 <= 15
 R614: Q14 <= 15
 R615: Q15 <= 15
 R616: Q16 <= 15
 R617: Q17 <= 15
 R618: Q18 <= 15
 R619: Q19 <= 15
 R620: Q20 <= 15
 R621: Q21 <= 15
 R622: Q22 <= 15
 R623: Q23 <= 15
 R624: Q24 <= 15
 R625: Q25 <= 15
 R626: Q26 <= 15
 R627: Q27 <= 15
 R628: Q28 <= 15
 R629: Q29 <= 15
 R70: Q0 >= 0
 R71: Q1 >= 0
 R72: Q2 >= 0
 R73: Q3 >= 0
 R74: Q4 >= 0
 R75: Q5 >= 0
 R76: Q6 >= 0
 R77: Q7 >= 0
 R78: Q8 >= 0
 R79: Q9 >= 0
 R710: Q10 >= 0
 R711: Q11 >= 0
 R712: Q12 >= 0
 R713: Q13 >= 0
 R714: Q14 >= 0
 R715: Q15 >= 0
 R716: Q16 >= 0
 R717: Q17 >= 0
 R718: Q18 >= 0
 R719: Q19 >= 0
 R720: Q20 >= 0
 R721: Q21 >= 0
 R722: Q22 >= 0
 R723: Q23 >= 0
 R724: Q24 >= 0
 R725: Q25 >= 0
 R726: Q26 >= 0
 R727: Q27 >= 0
 R728: Q28 >= 0
 R729: Q29 >= 0
Bounds
End
